p cnf 160 199
5  -3  -4  0
7  5  6  0
11  -9  -10  0
13  11  -12  0
-17  15  16  0
-25  23  -24  0
27  25  26  0
-31  29  30  0
35  33  -34  0
-37  35  36  0
39  -37  38  0
-41  -39  -40  0
-43  -41  -42  0
45  -43  44  0
-47  45  -46  0
49  47  -48  0
51  -49  -50  0
-53  51  52  0
-55  53  -54  0
-59  -57  -58  0
61  59  60  0
-63  61  62  0
67  65  66  0
69  67  -68  0
-73  71  -72  0
-77  75  76  0
-83  -81  -82  0
85  -83  -84  0
87  85  -86  0
-89  87  -88  0
93  -91  -92  0
-95  93  94  0
-97  -95  -96  0
101  99  -100  0
-103  101  -102  0
-105  -103  104  0
-107  -105  106  0
-115  -113  114  0
123  -121  -122  0
125  -123  124  0
-129  -127  128  0
131  129  130  0
-133  -131  132  0
135  -133  -134  0
141  -139  140  0
143  141  -142  0
151  149  -150  0
159  -157  158  0
-4  -3  -2  0
-4  -3  1  0
-6  5  -4  0
-6  -5  3  0
-8  -7  -6  0
8  7  -5  0
-8  5  -6  0
10  9  -8  0
10  7  -8  0
-12  11  -9  0
12  9  -10  0
-14  13  12  0
16  -15  14  0
-16  15  -13  0
-16  -13  14  0
-18  17  16  0
-18  -17  -15  0
-18  -15  16  0
-20  -19  -18  0
-20  -19  -17  0
-22  21  20  0
22  21  -19  0
22  19  -20  0
24  23  -21  0
24  21  -22  0
26  -25  -24  0
26  -25  -23  0
26  -23  24  0
28  -27  26  0
28  27  25  0
30  29  27  0
30  -27  28  0
-32  -31  -30  0
32  -31  29  0
32  -29  -30  0
-34  -33  32  0
-34  33  -31  0
-34  31  -32  0
36  -35  -34  0
-36  35  33  0
-36  33  34  0
-38  -37  35  0
-38  35  -36  0
40  -39  -38  0
-40  39  -37  0
-46  -45  -44  0
-46  43  44  0
-48  47  -45  0
-50  49  -48  0
52  -51  -50  0
-52  -51  -49  0
-54  53  -51  0
54  51  52  0
56  55  54  0
-56  55  -53  0
-58  55  -56  0
-60  -59  58  0
-64  -63  62  0
-64  63  61  0
64  -61  62  0
66  -65  63  0
-68  67  -66  0
70  69  68  0
72  -71  -69  0
-74  -73  72  0
74  73  71  0
-76  75  74  0
76  73  74  0
-78  77  76  0
78  77  -75  0
-78  -75  76  0
-80  -77  -78  0
82  81  80  0
-82  81  -79  0
84  -83  81  0
84  -81  -82  0
-86  -85  84  0
-86  83  84  0
88  87  86  0
-90  87  -88  0
92  -91  -90  0
92  -89  -90  0
94  93  -92  0
94  91  -92  0
96  -95  -94  0
-98  -97  95  0
-98  95  -96  0
-100  -99  98  0
-102  -101  -100  0
104  103  102  0
-104  -103  101  0
-106  105  -104  0
-108  107  105  0
110  109  108  0
-112  111  110  0
-112  111  109  0
114  -113  112  0
-114  -111  -112  0
116  115  -114  0
-116  115  -113  0
-116  -113  -114  0
118  -117  116  0
118  117  -115  0
-118  115  -116  0
120  117  -118  0
-122  121  -120  0
122  -121  -119  0
122  119  -120  0
-124  -123  -122  0
-124  -123  121  0
126  125  -123  0
-126  -123  -124  0
-128  127  -126  0
-128  127  125  0
128  125  126  0
-130  129  -128  0
-130  -129  -127  0
-130  127  -128  0
-132  -131  130  0
-132  131  -129  0
-134  -133  132  0
134  133  131  0
136  135  134  0
-136  -135  -133  0
136  133  134  0
-138  137  136  0
140  -139  -138  0
140  137  138  0
142  141  -140  0
142  -141  139  0
-142  -139  140  0
144  -141  142  0
146  -145  144  0
146  -143  144  0
-148  -147  146  0
-148  -147  145  0
-150  149  148  0
150  -149  147  0
-152  -151  -150  0
152  -151  -149  0
152  149  -150  0
-154  -153  -152  0
154  -153  151  0
-156  155  -154  0
156  -153  -154  0
-158  -157  -156  0
158  157  155  0
158  -155  156  0
160  -159  158  0
-160  159  -157  0
160  -157  158  0
